problems/VanDerWaerdenNumbers/VanDerWaerden-models/compact/O2/lingeling/model_1-k3l4n37-solution000001.eprime-solution
language ESSENCE' 1.0

letting p_PartitionAsSet_ExplicitR2_Occurrence be
        [[false, false, false, false, false, true, false, false, false, true, true, false, false, false, true, true,
          false, true, false, false, false, true, true, false, true, false, false, false, false, true, true, false,
          false, false, true, false, false; int(1..37)],
         [false, false, true, false, false, false, true, false, false, false, false, false, true, true, false, false,
          false, false, false, true, false, false, false, false, false, true, false, false, true, false, false, false,
          false, false, false, true, false; int(1..37)],
         [true, true, false, true, true, false, false, true, true, false, false, true, false, false, false, false, true,
          false, true, false, true, false, false, true, false, false, true, true, false, false, false, true, true, true,
          false, false, true; int(1..37)]; int(1..3)]
