problems/VanDerWaerdenNumbers/VanDerWaerden-models/compact/O2/lingeling/model_1-k3l4n37-solution000001.solution
language Essence 1.3

letting p be
        partition({1, 2, 4, 5, 8, 9, 12, 17, 19, 21, 24, 27, 28, 32, 33, 34, 37}, {3, 7, 13, 14, 20, 26, 29, 36},
                  {6, 10, 11, 15, 16, 18, 22, 23, 25, 30, 31, 35})
